c 83_3_checker_6cl.cnf
c
c field = 83
c formula set type = 3_checker_6cl
c
p cnf 6 64
158 
160 
162 
-157 
-154 
-166 
159 
161 
163 
-156 
-155 
-167 
158 
160 
162 
-167 
-156 
-168 
159 
161 
163 
-166 
-157 
-169 
160 
162 
166 
-159 
-156 
-168 
161 
163 
167 
-158 
-157 
-169 
160 
162 
166 
-169 
-158 
-170 
161 
163 
167 
-168 
-159 
-171 
162 
166 
168 
-161 
-158 
-170 
163 
167 
169 
-160 
-159 
-171 
162 
166 
168 
-171 
-160 
-172 
163 
167 
169 
-170 
-161 
-173 
166 
168 
170 
-163 
-160 
-172 
167 
169 
171 
-162 
-161 
-173 
166 
168 
170 
-173 
-162 
-174 
167 
169 
171 
-172 
-163 
-175 
74 
104 
134 
-45 
-14 
-194 
75 
105 
135 
-44 
-15 
-195 
74 
104 
134 
-195 
-44 
-224 
75 
105 
135 
-194 
-45 
-225 
104 
134 
194 
-75 
-44 
-224 
105 
135 
195 
-74 
-45 
-225 
104 
134 
194 
-225 
-74 
-254 
105 
135 
195 
-224 
-75 
-255 
134 
194 
224 
-105 
-74 
-254 
135 
195 
225 
-104 
-75 
-255 
134 
194 
224 
-255 
-104 
-284 
135 
195 
225 
-254 
-105 
-285 
194 
224 
254 
-135 
-104 
-284 
195 
225 
255 
-134 
-105 
-285 
194 
224 
254 
-285 
-134 
-314 
195 
225 
255 
-284 
-135 
-315 
68 
100 
132 
-37 
-4 
-196 
69 
101 
133 
-36 
-5 
-197 
68 
100 
132 
-197 
-36 
-228 
69 
101 
133 
-196 
-37 
-229 
100 
132 
196 
-69 
-36 
-228 
101 
133 
197 
-68 
-37 
-229 
100 
132 
196 
-229 
-68 
-260 
101 
133 
197 
-228 
-69 
-261 
132 
196 
228 
-101 
-68 
-260 
133 
197 
229 
-100 
-69 
-261 
132 
196 
228 
-261 
-100 
-292 
133 
197 
229 
-260 
-101 
-293 
196 
228 
260 
-133 
-100 
-292 
197 
229 
261 
-132 
-101 
-293 
196 
228 
260 
-293 
-132 
-324 
197 
229 
261 
-292 
-133 
-325 
80 
108 
136 
-53 
-24 
-192 
81 
109 
137 
-52 
-25 
-193 
80 
108 
136 
-193 
-52 
-220 
81 
109 
137 
-192 
-53 
-221 
108 
136 
192 
-81 
-52 
-220 
109 
137 
193 
-80 
-53 
-221 
108 
136 
192 
-221 
-80 
-248 
109 
137 
193 
-220 
-81 
-249 
136 
192 
220 
-109 
-80 
-248 
137 
193 
221 
-108 
-81 
-249 
136 
192 
220 
-249 
-108 
-276 
137 
193 
221 
-248 
-109 
-277 
192 
220 
248 
-137 
-108 
-276 
193 
221 
249 
-136 
-109 
-277 
192 
220 
248 
-277 
-136 
-304 
193 
221 
249 
-276 
-137 
-305 
